; chc-comp19-benchmarks/./lra-ts/chc-lra-ts-0165_000.smt2
(set-logic HORN)

(declare-fun |invariant| ( Real Real Real Real Real Real Real Real Real Real Real Real Real Real Real Real Real Real Real Real Real Real Real Real Real Real Real Real Real Real Real Real Real Real Real Real Real Real Real Real Real Real Real Real Real Real Real Real Real Real Real Real Real Real Real Real Real Real Real Real Real Real Real Real Real Real Real Real Real Real Real Real Real Real Real Real Real Real Real Real Bool Bool Bool Bool Bool Bool Bool Bool Bool Bool Bool Bool Bool Real Real Real Real Real Real Real Real ) Bool)

(assert
  (forall ( (A Real) (B Real) (C Real) (D Real) (E Real) (F Real) (G Real) (H Real) (I Real) (J Real) (K Real) (L Real) (M Real) (N Real) (O Real) (P Real) (Q Real) (R Real) (S Real) (T Real) (U Real) (V Real) (W Real) (X Real) (Y Real) (Z Real) (A1 Real) (B1 Real) (C1 Real) (D1 Real) (E1 Real) (F1 Real) (G1 Real) (H1 Real) (I1 Real) (J1 Real) (K1 Real) (L1 Real) (M1 Real) (N1 Real) (O1 Real) (P1 Real) (Q1 Real) (R1 Real) (S1 Real) (T1 Real) (U1 Real) (V1 Real) (W1 Real) (X1 Real) (Y1 Real) (Z1 Real) (A2 Real) (B2 Real) (C2 Real) (D2 Real) (E2 Real) (F2 Real) (G2 Real) (H2 Real) (I2 Real) (J2 Real) (K2 Real) (L2 Real) (M2 Real) (N2 Real) (O2 Real) (P2 Real) (Q2 Real) (R2 Real) (S2 Real) (T2 Real) (U2 Real) (V2 Real) (W2 Real) (X2 Real) (Y2 Real) (Z2 Real) (A3 Real) (B3 Real) (C3 Real) (D3 Real) (E3 Real) (F3 Bool) (G3 Bool) (H3 Bool) (I3 Bool) (J3 Bool) (K3 Bool) (L3 Bool) (M3 Bool) (N3 Bool) (O3 Bool) (P3 Bool) (Q3 Bool) (R3 Bool) (S3 Real) (T3 Real) (U3 Real) (V3 Real) (W3 Real) ) 
    (=>
      (and
        (and (= C3 0.0)
     (= B3 0.0)
     (= A3 0.0)
     (= Z2 0.0)
     (= Y2 0.0)
     (= X2 0.0)
     (= W2 0.0)
     (= V2 0.0)
     (= U2 0.0)
     (= T2 0.0)
     (= S2 0.0)
     (= R2 0.0)
     (= Q2 0.0)
     (= P2 0.0)
     (= O2 0.0)
     (= N2 0.0)
     (= M2 0.0)
     (= L2 0.0)
     (= K2 0.0)
     (= J2 0.0)
     (= I2 0.0)
     (= H2 0.0)
     (= G2 0.0)
     (= F2 0.0)
     (= E2 0.0)
     (= D2 0.0)
     (= C2 0.0)
     (= B2 0.0)
     (= A2 0.0)
     (= Z1 0.0)
     (= Y1 0.0)
     (= X1 0.0)
     (= W1 0.0)
     (= V1 0.0)
     (= U1 0.0)
     (= T1 0.0)
     (= S1 0.0)
     (= R1 0.0)
     (= Q1 0.0)
     (= P1 0.0)
     (= O1 0.0)
     (= N1 0.0)
     (= M1 0.0)
     (= L1 0.0)
     (= K1 0.0)
     (= J1 0.0)
     (= I1 0.0)
     (= H1 0.0)
     (= G1 0.0)
     (= F1 0.0)
     (= E1 0.0)
     (= D1 0.0)
     (= C1 0.0)
     (= B1 0.0)
     (= A1 0.0)
     (= Z 0.0)
     (= Y 0.0)
     (= X 0.0)
     (= W 0.0)
     (= V 0.0)
     (= U 0.0)
     (= T 0.0)
     (= S 0.0)
     (= R 0.0)
     (= Q 0.0)
     (= P 0.0)
     (= O 0.0)
     (= N 0.0)
     (= M 0.0)
     (= L 0.0)
     (= K 0.0)
     (= J 0.0)
     (= I 0.0)
     (= H 0.0)
     (= G 0.0)
     (= F 0.0)
     (= E 0.0)
     (= D 0.0)
     (= C 0.0)
     (= B 0.0)
     (= A 0.0)
     (or (and (not K3) L3 M3 N3 O3 P3 Q3 R3)
         (and K3 (not L3) M3 N3 O3 P3 Q3 R3)
         (and K3 L3 (not M3) N3 O3 P3 Q3 R3)
         (and K3 L3 M3 (not N3) O3 P3 Q3 R3)
         (and K3 L3 M3 N3 (not O3) P3 Q3 R3)
         (and K3 L3 M3 N3 O3 (not P3) Q3 R3)
         (and K3 L3 M3 N3 O3 P3 (not Q3) R3)
         (and K3 L3 M3 N3 O3 P3 Q3 (not R3)))
     (or (= D3 1.0) (= D3 2.0) (= D3 3.0) (= D3 4.0) (= D3 5.0))
     (= J3 true)
     (= I3 true)
     (= H3 true)
     (= G3 true)
     (= F3 true)
     (not (= E3 0.0)))
      )
      (invariant B
           C
           D
           E
           F
           G
           H
           I
           J
           K
           L
           M
           N
           O
           P
           Q
           R
           S
           T
           U
           V
           W
           X
           Y
           Z
           A1
           B1
           C1
           D1
           E1
           F1
           G1
           H1
           I1
           J1
           K1
           L1
           M1
           N1
           O1
           P1
           Q1
           R1
           S1
           T1
           U1
           V1
           W1
           X1
           Y1
           Z1
           A2
           B2
           C2
           D2
           E2
           F2
           G2
           H2
           I2
           J2
           K2
           L2
           M2
           N2
           O2
           P2
           Q2
           R2
           S2
           T2
           U2
           V2
           W2
           X2
           Y2
           Z2
           A3
           B3
           C3
           F3
           G3
           H3
           I3
           J3
           K3
           L3
           M3
           N3
           O3
           P3
           Q3
           R3
           S3
           T3
           U3
           V3
           W3
           A
           D3
           E3)
    )
  )
)
(assert
  (forall ( (A Real) (B Real) (C Real) (D Real) (E Real) (F Real) (G Real) (H Real) (I Real) (J Real) (K Real) (L Real) (M Real) (N Real) (O Real) (P Real) (Q Real) (R Real) (S Real) (T Real) (U Real) (V Real) (W Real) (X Real) (Y Real) (Z Real) (A1 Real) (B1 Real) (C1 Real) (D1 Real) (E1 Real) (F1 Real) (G1 Real) (H1 Real) (I1 Real) (J1 Real) (K1 Real) (L1 Real) (M1 Real) (N1 Real) (O1 Real) (P1 Real) (Q1 Real) (R1 Real) (S1 Real) (T1 Real) (U1 Real) (V1 Real) (W1 Real) (X1 Real) (Y1 Real) (Z1 Real) (A2 Real) (B2 Real) (C2 Real) (D2 Real) (E2 Real) (F2 Real) (G2 Real) (H2 Real) (I2 Real) (J2 Real) (K2 Real) (L2 Real) (M2 Real) (N2 Real) (O2 Real) (P2 Real) (Q2 Real) (R2 Real) (S2 Real) (T2 Real) (U2 Real) (V2 Real) (W2 Real) (X2 Real) (Y2 Real) (Z2 Real) (A3 Real) (B3 Real) (C3 Bool) (D3 Bool) (E3 Bool) (F3 Bool) (G3 Bool) (H3 Bool) (I3 Bool) (J3 Bool) (K3 Bool) (L3 Bool) (M3 Bool) (N3 Bool) (O3 Bool) (P3 Real) (Q3 Real) (R3 Real) (S3 Real) (T3 Real) (U3 Real) (V3 Real) (W3 Real) (X3 Real) (Y3 Real) (Z3 Real) (A4 Real) (B4 Real) (C4 Real) (D4 Real) (E4 Real) (F4 Real) (G4 Real) (H4 Real) (I4 Real) (J4 Real) (K4 Real) (L4 Real) (M4 Real) (N4 Real) (O4 Real) (P4 Real) (Q4 Real) (R4 Real) (S4 Real) (T4 Real) (U4 Real) (V4 Real) (W4 Real) (X4 Real) (Y4 Real) (Z4 Real) (A5 Real) (B5 Real) (C5 Real) (D5 Real) (E5 Real) (F5 Real) (G5 Real) (H5 Real) (I5 Real) (J5 Real) (K5 Real) (L5 Real) (M5 Real) (N5 Real) (O5 Real) (P5 Real) (Q5 Real) (R5 Real) (S5 Real) (T5 Real) (U5 Real) (V5 Real) (W5 Real) (X5 Real) (Y5 Real) (Z5 Real) (A6 Real) (B6 Real) (C6 Real) (D6 Real) (E6 Real) (F6 Real) (G6 Real) (H6 Real) (I6 Real) (J6 Real) (K6 Real) (L6 Real) (M6 Real) (N6 Real) (O6 Real) (P6 Real) (Q6 Real) (R6 Real) (S6 Real) (T6 Real) (U6 Real) (V6 Real) (W6 Real) (X6 Real) (Y6 Real) (Z6 Real) (A7 Real) (B7 Real) (C7 Bool) (D7 Bool) (E7 Bool) (F7 Bool) (G7 Bool) (H7 Bool) (I7 Bool) (J7 Bool) (K7 Bool) (L7 Bool) (M7 Bool) (N7 Bool) (O7 Bool) (P7 Real) (Q7 Real) (R7 Real) (S7 Real) (T7 Real) ) 
    (=>
      (and
        (invariant A
           B
           C
           D
           E
           F
           G
           H
           I
           J
           K
           L
           M
           N
           O
           P
           Q
           R
           S
           T
           U
           V
           W
           X
           Y
           Z
           A1
           B1
           C1
           D1
           E1
           F1
           G1
           H1
           I1
           J1
           K1
           L1
           M1
           N1
           O1
           P1
           Q1
           R1
           S1
           T1
           U1
           V1
           W1
           X1
           Y1
           Z1
           A2
           B2
           C2
           D2
           E2
           F2
           G2
           H2
           I2
           J2
           K2
           L2
           M2
           N2
           O2
           P2
           Q2
           R2
           S2
           T2
           U2
           V2
           W2
           X2
           Y2
           Z2
           A3
           B3
           C3
           D3
           E3
           F3
           G3
           H3
           I3
           J3
           K3
           L3
           M3
           N3
           O3
           P3
           Q3
           R3
           S3
           T3
           U3
           V3
           W3)
        (let ((a!1 (and (or (not C3)
                    (and (= Z3 W3)
                         (= A4 W3)
                         (= B4 W3)
                         (= C4 W3)
                         (= D4 W3)
                         (= E4 W3)
                         (= F4 W3)
                         (= G4 W3))
                    (not (= 1.0 V3)))
                (or (not C3)
                    (and (= Z3 0.0)
                         (= A4 0.0)
                         (= B4 0.0)
                         (= C4 0.0)
                         (= D4 0.0)
                         (= E4 0.0)
                         (= F4 0.0)
                         (= G4 0.0))
                    (= 1.0 V3))
                (or (not D3)
                    (and (= H4 W3)
                         (= I4 W3)
                         (= J4 W3)
                         (= K4 W3)
                         (= L4 W3)
                         (= M4 W3)
                         (= N4 W3)
                         (= O4 W3))
                    (not (= 2.0 V3)))
                (or (not D3)
                    (and (= H4 0.0)
                         (= I4 0.0)
                         (= J4 0.0)
                         (= K4 0.0)
                         (= L4 0.0)
                         (= M4 0.0)
                         (= N4 0.0)
                         (= O4 0.0))
                    (= 2.0 V3))
                (or (not E3)
                    (and (= P4 W3)
                         (= Q4 W3)
                         (= R4 W3)
                         (= S4 W3)
                         (= T4 W3)
                         (= U4 W3)
                         (= V4 W3)
                         (= W4 W3))
                    (not (= 3.0 V3)))
                (or (not E3)
                    (and (= P4 0.0)
                         (= Q4 0.0)
                         (= R4 0.0)
                         (= S4 0.0)
                         (= T4 0.0)
                         (= U4 0.0)
                         (= V4 0.0)
                         (= W4 0.0))
                    (= 3.0 V3))
                (or (not F3)
                    (and (= X4 W3)
                         (= Y4 W3)
                         (= Z4 W3)
                         (= A5 W3)
                         (= B5 W3)
                         (= C5 W3)
                         (= D5 W3)
                         (= E5 W3))
                    (not (= 4.0 V3)))
                (or (not F3)
                    (and (= X4 0.0)
                         (= Y4 0.0)
                         (= Z4 0.0)
                         (= A5 0.0)
                         (= B5 0.0)
                         (= C5 0.0)
                         (= D5 0.0)
                         (= E5 0.0))
                    (= 4.0 V3))
                (or (not G3)
                    (and (= F5 W3)
                         (= G5 W3)
                         (= H5 W3)
                         (= I5 W3)
                         (= J5 W3)
                         (= K5 W3)
                         (= L5 W3)
                         (= M5 W3))
                    (not (= 5.0 V3)))
                (or (not G3)
                    (and (= F5 0.0)
                         (= G5 0.0)
                         (= H5 0.0)
                         (= I5 0.0)
                         (= J5 0.0)
                         (= K5 0.0)
                         (= L5 0.0)
                         (= M5 0.0))
                    (= 5.0 V3))
                (= N5 1.0)
                (= O5 O1)
                (= P5 P1)
                (= Q5 Q1)
                (= R5 R1)
                (= S5 S1)
                (= T5 T1)
                (= U5 U1)
                (= V5 V1)
                (= W5 W1)
                (= X5 X1)
                (= Y5 Y1)
                (= Z5 Z1)
                (= A6 A2)
                (= B6 B2)
                (= C6 C2)
                (= D6 D2)
                (= E6 E2)
                (= F6 F2)
                (= G6 G2)
                (= H6 H2)
                (= I6 I2)
                (= J6 J2)
                (= K6 K2)
                (= L6 L2)
                (= M6 M2)
                (= N6 N2)
                (= O6 O2)
                (= P6 P2)
                (= Q6 Q2)
                (= R6 R2)
                (= S6 S2)
                (= T6 T2)
                (= U6 U2)
                (= V6 V2)
                (= W6 W2)
                (= X6 X2)
                (= Y6 Y2)
                (= Z6 Z2)
                (= A7 A3)
                (= B7 B3)
                (= P7 P3)
                (= Q7 Q3)
                (= R7 R3)
                (= S7 S3)
                (= T7 T3)
                (= U3 0.0)
                (= C7 C3)
                (= D7 D3)
                (= E7 E3)
                (= F7 F3)
                (= G7 G3)
                (= H7 H3)
                (= I7 I3)
                (= J7 J3)
                (= K7 K3)
                (= L7 L3)
                (= M7 M3)
                (= N7 N3)
                (= O7 O3)))
      (a!2 (ite (= T1 V1)
                (+ 1 (ite (= U1 V1) 2 0))
                (+ (- 1) (ite (= U1 V1) 2 0))))
      (a!21 (ite (= B2 D2)
                 (+ 1 (ite (= C2 D2) 2 0))
                 (+ (- 1) (ite (= C2 D2) 2 0))))
      (a!40 (ite (= J2 L2)
                 (+ 1 (ite (= K2 L2) 2 0))
                 (+ (- 1) (ite (= K2 L2) 2 0))))
      (a!59 (ite (= R2 T2)
                 (+ 1 (ite (= S2 T2) 2 0))
                 (+ (- 1) (ite (= S2 T2) 2 0))))
      (a!78 (ite (= Z2 B3)
                 (+ 1 (ite (= A3 B3) 2 0))
                 (+ (- 1) (ite (= A3 B3) 2 0))))
      (a!97 (ite (= V3 4.0) Y (ite (= V3 3.0) Q (ite (= V3 2.0) I A))))
      (a!103 (ite (= V3 4.0) Z (ite (= V3 3.0) R (ite (= V3 2.0) J B))))
      (a!109 (ite (= V3 4.0) A1 (ite (= V3 3.0) S (ite (= V3 2.0) K C))))
      (a!115 (ite (= V3 4.0) B1 (ite (= V3 3.0) T (ite (= V3 2.0) L D))))
      (a!121 (ite (= V3 4.0) C1 (ite (= V3 3.0) U (ite (= V3 2.0) M E))))
      (a!127 (ite (= V3 4.0) D1 (ite (= V3 3.0) V (ite (= V3 2.0) N F))))
      (a!133 (ite (= V3 4.0) E1 (ite (= V3 3.0) W (ite (= V3 2.0) O G))))
      (a!139 (ite (= V3 4.0) F1 (ite (= V3 3.0) X (ite (= V3 2.0) P H)))))
(let ((a!3 (ite (= S1 (ite (= U1 V1) V1 T1))
                (+ 1 (ite (= U1 V1) a!2 1))
                (+ (- 1) (ite (= U1 V1) a!2 1))))
      (a!5 (ite (= (ite (= U1 V1) a!2 1) 0) S1 (ite (= U1 V1) V1 T1)))
      (a!22 (ite (= A2 (ite (= C2 D2) D2 B2))
                 (+ 1 (ite (= C2 D2) a!21 1))
                 (+ (- 1) (ite (= C2 D2) a!21 1))))
      (a!24 (ite (= (ite (= C2 D2) a!21 1) 0) A2 (ite (= C2 D2) D2 B2)))
      (a!41 (ite (= I2 (ite (= K2 L2) L2 J2))
                 (+ 1 (ite (= K2 L2) a!40 1))
                 (+ (- 1) (ite (= K2 L2) a!40 1))))
      (a!43 (ite (= (ite (= K2 L2) a!40 1) 0) I2 (ite (= K2 L2) L2 J2)))
      (a!60 (ite (= Q2 (ite (= S2 T2) T2 R2))
                 (+ 1 (ite (= S2 T2) a!59 1))
                 (+ (- 1) (ite (= S2 T2) a!59 1))))
      (a!62 (ite (= (ite (= S2 T2) a!59 1) 0) Q2 (ite (= S2 T2) T2 R2)))
      (a!79 (ite (= Y2 (ite (= A3 B3) B3 Z2))
                 (+ 1 (ite (= A3 B3) a!78 1))
                 (+ (- 1) (ite (= A3 B3) a!78 1))))
      (a!81 (ite (= (ite (= A3 B3) a!78 1) 0) Y2 (ite (= A3 B3) B3 Z2)))
      (a!98 (or (not H3) (= O5 (ite (= V3 5.0) G1 a!97))))
      (a!99 (or (not H3) (= W5 (ite (= V3 5.0) G1 a!97))))
      (a!100 (or (not H3) (= E6 (ite (= V3 5.0) G1 a!97))))
      (a!101 (or (not H3) (= M6 (ite (= V3 5.0) G1 a!97))))
      (a!102 (or (not H3) (= U6 (ite (= V3 5.0) G1 a!97))))
      (a!104 (or (not I3) (= P5 (ite (= V3 5.0) H1 a!103))))
      (a!105 (or (not I3) (= X5 (ite (= V3 5.0) H1 a!103))))
      (a!106 (or (not I3) (= F6 (ite (= V3 5.0) H1 a!103))))
      (a!107 (or (not I3) (= N6 (ite (= V3 5.0) H1 a!103))))
      (a!108 (or (not I3) (= V6 (ite (= V3 5.0) H1 a!103))))
      (a!110 (or (not J3) (= Q5 (ite (= V3 5.0) I1 a!109))))
      (a!111 (or (not J3) (= Y5 (ite (= V3 5.0) I1 a!109))))
      (a!112 (or (not J3) (= G6 (ite (= V3 5.0) I1 a!109))))
      (a!113 (or (not J3) (= O6 (ite (= V3 5.0) I1 a!109))))
      (a!114 (or (not J3) (= W6 (ite (= V3 5.0) I1 a!109))))
      (a!116 (or (not K3) (= R5 (ite (= V3 5.0) J1 a!115))))
      (a!117 (or (not K3) (= Z5 (ite (= V3 5.0) J1 a!115))))
      (a!118 (or (not K3) (= H6 (ite (= V3 5.0) J1 a!115))))
      (a!119 (or (not K3) (= P6 (ite (= V3 5.0) J1 a!115))))
      (a!120 (or (not K3) (= X6 (ite (= V3 5.0) J1 a!115))))
      (a!122 (or (not L3) (= S5 (ite (= V3 5.0) K1 a!121))))
      (a!123 (or (not L3) (= A6 (ite (= V3 5.0) K1 a!121))))
      (a!124 (or (not L3) (= I6 (ite (= V3 5.0) K1 a!121))))
      (a!125 (or (not L3) (= Q6 (ite (= V3 5.0) K1 a!121))))
      (a!126 (or (not L3) (= Y6 (ite (= V3 5.0) K1 a!121))))
      (a!128 (or (not M3) (= T5 (ite (= V3 5.0) L1 a!127))))
      (a!129 (or (not M3) (= B6 (ite (= V3 5.0) L1 a!127))))
      (a!130 (or (not M3) (= J6 (ite (= V3 5.0) L1 a!127))))
      (a!131 (or (not M3) (= R6 (ite (= V3 5.0) L1 a!127))))
      (a!132 (or (not M3) (= Z6 (ite (= V3 5.0) L1 a!127))))
      (a!134 (or (not N3) (= U5 (ite (= V3 5.0) M1 a!133))))
      (a!135 (or (not N3) (= C6 (ite (= V3 5.0) M1 a!133))))
      (a!136 (or (not N3) (= K6 (ite (= V3 5.0) M1 a!133))))
      (a!137 (or (not N3) (= S6 (ite (= V3 5.0) M1 a!133))))
      (a!138 (or (not N3) (= A7 (ite (= V3 5.0) M1 a!133))))
      (a!140 (or (not O3) (= V5 (ite (= V3 5.0) N1 a!139))))
      (a!141 (or (not O3) (= D6 (ite (= V3 5.0) N1 a!139))))
      (a!142 (or (not O3) (= L6 (ite (= V3 5.0) N1 a!139))))
      (a!143 (or (not O3) (= T6 (ite (= V3 5.0) N1 a!139))))
      (a!144 (or (not O3) (= B7 (ite (= V3 5.0) N1 a!139)))))
(let ((a!4 (ite (= (ite (= U1 V1) a!2 1) 0) 1 a!3))
      (a!23 (ite (= (ite (= C2 D2) a!21 1) 0) 1 a!22))
      (a!42 (ite (= (ite (= K2 L2) a!40 1) 0) 1 a!41))
      (a!61 (ite (= (ite (= S2 T2) a!59 1) 0) 1 a!60))
      (a!80 (ite (= (ite (= A3 B3) a!78 1) 0) 1 a!79)))
(let ((a!6 (ite (= a!4 0) 1 (ite (= R1 a!5) (+ 1 a!4) (+ (- 1) a!4))))
      (a!25 (ite (= a!23 0) 1 (ite (= Z1 a!24) (+ 1 a!23) (+ (- 1) a!23))))
      (a!44 (ite (= a!42 0) 1 (ite (= H2 a!43) (+ 1 a!42) (+ (- 1) a!42))))
      (a!63 (ite (= a!61 0) 1 (ite (= P2 a!62) (+ 1 a!61) (+ (- 1) a!61))))
      (a!82 (ite (= a!80 0) 1 (ite (= X2 a!81) (+ 1 a!80) (+ (- 1) a!80)))))
(let ((a!7 (ite (= Q1 (ite (= a!4 0) R1 a!5)) (+ 1 a!6) (+ (- 1) a!6)))
      (a!8 (ite (= a!6 0) Q1 (ite (= a!4 0) R1 a!5)))
      (a!26 (ite (= Y1 (ite (= a!23 0) Z1 a!24)) (+ 1 a!25) (+ (- 1) a!25)))
      (a!27 (ite (= a!25 0) Y1 (ite (= a!23 0) Z1 a!24)))
      (a!45 (ite (= G2 (ite (= a!42 0) H2 a!43)) (+ 1 a!44) (+ (- 1) a!44)))
      (a!46 (ite (= a!44 0) G2 (ite (= a!42 0) H2 a!43)))
      (a!64 (ite (= O2 (ite (= a!61 0) P2 a!62)) (+ 1 a!63) (+ (- 1) a!63)))
      (a!65 (ite (= a!63 0) O2 (ite (= a!61 0) P2 a!62)))
      (a!83 (ite (= W2 (ite (= a!80 0) X2 a!81)) (+ 1 a!82) (+ (- 1) a!82)))
      (a!84 (ite (= a!82 0) W2 (ite (= a!80 0) X2 a!81))))
(let ((a!9 (ite (= P1 a!8)
                (+ 1 (ite (= a!6 0) 1 a!7))
                (+ (- 1) (ite (= a!6 0) 1 a!7))))
      (a!11 (ite (= (ite (= a!6 0) 1 a!7) 0) P1 a!8))
      (a!28 (ite (= X1 a!27)
                 (+ 1 (ite (= a!25 0) 1 a!26))
                 (+ (- 1) (ite (= a!25 0) 1 a!26))))
      (a!30 (ite (= (ite (= a!25 0) 1 a!26) 0) X1 a!27))
      (a!47 (ite (= F2 a!46)
                 (+ 1 (ite (= a!44 0) 1 a!45))
                 (+ (- 1) (ite (= a!44 0) 1 a!45))))
      (a!49 (ite (= (ite (= a!44 0) 1 a!45) 0) F2 a!46))
      (a!66 (ite (= N2 a!65)
                 (+ 1 (ite (= a!63 0) 1 a!64))
                 (+ (- 1) (ite (= a!63 0) 1 a!64))))
      (a!68 (ite (= (ite (= a!63 0) 1 a!64) 0) N2 a!65))
      (a!85 (ite (= V2 a!84)
                 (+ 1 (ite (= a!82 0) 1 a!83))
                 (+ (- 1) (ite (= a!82 0) 1 a!83))))
      (a!87 (ite (= (ite (= a!82 0) 1 a!83) 0) V2 a!84)))
(let ((a!10 (ite (= (ite (= a!6 0) 1 a!7) 0) 1 a!9))
      (a!29 (ite (= (ite (= a!25 0) 1 a!26) 0) 1 a!28))
      (a!48 (ite (= (ite (= a!44 0) 1 a!45) 0) 1 a!47))
      (a!67 (ite (= (ite (= a!63 0) 1 a!64) 0) 1 a!66))
      (a!86 (ite (= (ite (= a!82 0) 1 a!83) 0) 1 a!85)))
(let ((a!12 (ite (= V1 (ite (= a!10 0) O1 a!11)) 4 5))
      (a!31 (ite (= D2 (ite (= a!29 0) W1 a!30)) 4 5))
      (a!50 (ite (= L2 (ite (= a!48 0) E2 a!49)) 4 5))
      (a!69 (ite (= T2 (ite (= a!67 0) M2 a!68)) 4 5))
      (a!88 (ite (= B3 (ite (= a!86 0) U2 a!87)) 4 5)))
(let ((a!13 (ite (= U1 (ite (= a!10 0) O1 a!11)) (+ (- 1) a!12) a!12))
      (a!32 (ite (= C2 (ite (= a!29 0) W1 a!30)) (+ (- 1) a!31) a!31))
      (a!51 (ite (= K2 (ite (= a!48 0) E2 a!49)) (+ (- 1) a!50) a!50))
      (a!70 (ite (= S2 (ite (= a!67 0) M2 a!68)) (+ (- 1) a!69) a!69))
      (a!89 (ite (= A3 (ite (= a!86 0) U2 a!87)) (+ (- 1) a!88) a!88)))
(let ((a!14 (ite (= T1 (ite (= a!10 0) O1 a!11)) (+ (- 1) a!13) a!13))
      (a!33 (ite (= B2 (ite (= a!29 0) W1 a!30)) (+ (- 1) a!32) a!32))
      (a!52 (ite (= J2 (ite (= a!48 0) E2 a!49)) (+ (- 1) a!51) a!51))
      (a!71 (ite (= R2 (ite (= a!67 0) M2 a!68)) (+ (- 1) a!70) a!70))
      (a!90 (ite (= Z2 (ite (= a!86 0) U2 a!87)) (+ (- 1) a!89) a!89)))
(let ((a!15 (ite (= S1 (ite (= a!10 0) O1 a!11)) (+ (- 1) a!14) a!14))
      (a!34 (ite (= A2 (ite (= a!29 0) W1 a!30)) (+ (- 1) a!33) a!33))
      (a!53 (ite (= I2 (ite (= a!48 0) E2 a!49)) (+ (- 1) a!52) a!52))
      (a!72 (ite (= Q2 (ite (= a!67 0) M2 a!68)) (+ (- 1) a!71) a!71))
      (a!91 (ite (= Y2 (ite (= a!86 0) U2 a!87)) (+ (- 1) a!90) a!90)))
(let ((a!16 (ite (= R1 (ite (= a!10 0) O1 a!11)) (+ (- 1) a!15) a!15))
      (a!35 (ite (= Z1 (ite (= a!29 0) W1 a!30)) (+ (- 1) a!34) a!34))
      (a!54 (ite (= H2 (ite (= a!48 0) E2 a!49)) (+ (- 1) a!53) a!53))
      (a!73 (ite (= P2 (ite (= a!67 0) M2 a!68)) (+ (- 1) a!72) a!72))
      (a!92 (ite (= X2 (ite (= a!86 0) U2 a!87)) (+ (- 1) a!91) a!91)))
(let ((a!17 (ite (= Q1 (ite (= a!10 0) O1 a!11)) (+ (- 1) a!16) a!16))
      (a!36 (ite (= Y1 (ite (= a!29 0) W1 a!30)) (+ (- 1) a!35) a!35))
      (a!55 (ite (= G2 (ite (= a!48 0) E2 a!49)) (+ (- 1) a!54) a!54))
      (a!74 (ite (= O2 (ite (= a!67 0) M2 a!68)) (+ (- 1) a!73) a!73))
      (a!93 (ite (= W2 (ite (= a!86 0) U2 a!87)) (+ (- 1) a!92) a!92)))
(let ((a!18 (ite (= P1 (ite (= a!10 0) O1 a!11)) (+ (- 1) a!17) a!17))
      (a!37 (ite (= X1 (ite (= a!29 0) W1 a!30)) (+ (- 1) a!36) a!36))
      (a!56 (ite (= F2 (ite (= a!48 0) E2 a!49)) (+ (- 1) a!55) a!55))
      (a!75 (ite (= N2 (ite (= a!67 0) M2 a!68)) (+ (- 1) a!74) a!74))
      (a!94 (ite (= V2 (ite (= a!86 0) U2 a!87)) (+ (- 1) a!93) a!93)))
(let ((a!19 (ite (= O1 (ite (= a!10 0) O1 a!11)) (+ (- 1) a!18) a!18))
      (a!38 (ite (= W1 (ite (= a!29 0) W1 a!30)) (+ (- 1) a!37) a!37))
      (a!57 (ite (= E2 (ite (= a!48 0) E2 a!49)) (+ (- 1) a!56) a!56))
      (a!76 (ite (= M2 (ite (= a!67 0) M2 a!68)) (+ (- 1) a!75) a!75))
      (a!95 (ite (= U2 (ite (= a!86 0) U2 a!87)) (+ (- 1) a!94) a!94)))
(let ((a!20 (= P7
               (ite (or (= a!19 0)
                        (= a!18 0)
                        (= a!17 0)
                        (= a!16 0)
                        (= a!15 0)
                        (= a!14 0))
                    (ite (= a!10 0) O1 a!11)
                    0.0)))
      (a!39 (= Q7
               (ite (or (= a!38 0)
                        (= a!37 0)
                        (= a!36 0)
                        (= a!35 0)
                        (= a!34 0)
                        (= a!33 0))
                    (ite (= a!29 0) W1 a!30)
                    0.0)))
      (a!58 (= R7
               (ite (or (= a!57 0)
                        (= a!56 0)
                        (= a!55 0)
                        (= a!54 0)
                        (= a!53 0)
                        (= a!52 0))
                    (ite (= a!48 0) E2 a!49)
                    0.0)))
      (a!77 (= S7
               (ite (or (= a!76 0)
                        (= a!75 0)
                        (= a!74 0)
                        (= a!73 0)
                        (= a!72 0)
                        (= a!71 0))
                    (ite (= a!67 0) M2 a!68)
                    0.0)))
      (a!96 (= T7
               (ite (or (= a!95 0)
                        (= a!94 0)
                        (= a!93 0)
                        (= a!92 0)
                        (= a!91 0)
                        (= a!90 0))
                    (ite (= a!86 0) U2 a!87)
                    0.0))))
(let ((a!145 (or a!1
                 (and (or (not C3) a!20)
                      (or (not D3) a!39)
                      (or (not E3) a!58)
                      (or (not F3) a!77)
                      (or (not G3) a!96)
                      (= Z3 A)
                      (= A4 B)
                      (= B4 C)
                      (= C4 D)
                      (= D4 E)
                      (= E4 F)
                      (= F4 G)
                      (= G4 H)
                      (= H4 I)
                      (= I4 J)
                      (= J4 K)
                      (= K4 L)
                      (= L4 M)
                      (= M4 N)
                      (= N4 O)
                      (= O4 P)
                      (= P4 Q)
                      (= Q4 R)
                      (= R4 S)
                      (= S4 T)
                      (= T4 U)
                      (= U4 V)
                      (= V4 W)
                      (= W4 X)
                      (= X4 Y)
                      (= Y4 Z)
                      (= Z4 A1)
                      (= A5 B1)
                      (= B5 C1)
                      (= C5 D1)
                      (= D5 E1)
                      (= E5 F1)
                      (= F5 G1)
                      (= G5 H1)
                      (= H5 I1)
                      (= I5 J1)
                      (= J5 K1)
                      (= K5 L1)
                      (= L5 M1)
                      (= M5 N1)
                      (= N5 3.0)
                      (= O5 O1)
                      (= P5 P1)
                      (= Q5 Q1)
                      (= R5 R1)
                      (= S5 S1)
                      (= T5 T1)
                      (= U5 U1)
                      (= V5 V1)
                      (= W5 W1)
                      (= X5 X1)
                      (= Y5 Y1)
                      (= Z5 Z1)
                      (= A6 A2)
                      (= B6 B2)
                      (= C6 C2)
                      (= D6 D2)
                      (= E6 E2)
                      (= F6 F2)
                      (= G6 G2)
                      (= H6 H2)
                      (= I6 I2)
                      (= J6 J2)
                      (= K6 K2)
                      (= L6 L2)
                      (= M6 M2)
                      (= N6 N2)
                      (= O6 O2)
                      (= P6 P2)
                      (= Q6 Q2)
                      (= R6 R2)
                      (= S6 S2)
                      (= T6 T2)
                      (= U6 U2)
                      (= V6 V2)
                      (= W6 W2)
                      (= X6 X2)
                      (= Y6 Y2)
                      (= Z6 Z2)
                      (= A7 A3)
                      (= B7 B3)
                      (= U3 2.0)
                      (= C7 C3)
                      (= D7 D3)
                      (= E7 E3)
                      (= F7 F3)
                      (= G7 G3)
                      (= H7 H3)
                      (= I7 I3)
                      (= J7 J3)
                      (= K7 K3)
                      (= L7 L3)
                      (= M7 M3)
                      (= N7 N3)
                      (= O7 O3))
                 (and a!98
                      a!99
                      a!100
                      a!101
                      a!102
                      a!104
                      a!105
                      a!106
                      a!107
                      a!108
                      a!110
                      a!111
                      a!112
                      a!113
                      a!114
                      a!116
                      a!117
                      a!118
                      a!119
                      a!120
                      a!122
                      a!123
                      a!124
                      a!125
                      a!126
                      a!128
                      a!129
                      a!130
                      a!131
                      a!132
                      a!134
                      a!135
                      a!136
                      a!137
                      a!138
                      a!140
                      a!141
                      a!142
                      a!143
                      a!144
                      (= Z3 A)
                      (= A4 B)
                      (= B4 C)
                      (= C4 D)
                      (= D4 E)
                      (= E4 F)
                      (= F4 G)
                      (= G4 H)
                      (= H4 I)
                      (= I4 J)
                      (= J4 K)
                      (= K4 L)
                      (= L4 M)
                      (= M4 N)
                      (= N4 O)
                      (= O4 P)
                      (= P4 Q)
                      (= Q4 R)
                      (= R4 S)
                      (= S4 T)
                      (= T4 U)
                      (= U4 V)
                      (= V4 W)
                      (= W4 X)
                      (= X4 Y)
                      (= Y4 Z)
                      (= Z4 A1)
                      (= A5 B1)
                      (= B5 C1)
                      (= C5 D1)
                      (= D5 E1)
                      (= E5 F1)
                      (= F5 G1)
                      (= G5 H1)
                      (= H5 I1)
                      (= I5 J1)
                      (= J5 K1)
                      (= K5 L1)
                      (= L5 M1)
                      (= M5 N1)
                      (= N5 2.0)
                      (= P7 P3)
                      (= Q7 Q3)
                      (= R7 R3)
                      (= S7 S3)
                      (= T7 T3)
                      (= U3 1.0)
                      (= C7 C3)
                      (= D7 D3)
                      (= E7 E3)
                      (= F7 F3)
                      (= G7 G3)
                      (= H7 H3)
                      (= I7 I3)
                      (= J7 J3)
                      (= K7 K3)
                      (= L7 L3)
                      (= M7 M3)
                      (= N7 N3)
                      (= O7 O3))
                 (and (= Z3 A)
                      (= A4 B)
                      (= B4 C)
                      (= C4 D)
                      (= D4 E)
                      (= E4 F)
                      (= F4 G)
                      (= G4 H)
                      (= H4 I)
                      (= I4 J)
                      (= J4 K)
                      (= K4 L)
                      (= L4 M)
                      (= M4 N)
                      (= N4 O)
                      (= O4 P)
                      (= P4 Q)
                      (= Q4 R)
                      (= R4 S)
                      (= S4 T)
                      (= T4 U)
                      (= U4 V)
                      (= V4 W)
                      (= W4 X)
                      (= X4 Y)
                      (= Y4 Z)
                      (= Z4 A1)
                      (= A5 B1)
                      (= B5 C1)
                      (= C5 D1)
                      (= D5 E1)
                      (= E5 F1)
                      (= F5 G1)
                      (= G5 H1)
                      (= H5 I1)
                      (= I5 J1)
                      (= J5 K1)
                      (= K5 L1)
                      (= L5 M1)
                      (= M5 N1)
                      (= N5 U3)
                      (= O5 O1)
                      (= P5 P1)
                      (= Q5 Q1)
                      (= R5 R1)
                      (= S5 S1)
                      (= T5 T1)
                      (= U5 U1)
                      (= V5 V1)
                      (= W5 W1)
                      (= X5 X1)
                      (= Y5 Y1)
                      (= Z5 Z1)
                      (= A6 A2)
                      (= B6 B2)
                      (= C6 C2)
                      (= D6 D2)
                      (= E6 E2)
                      (= F6 F2)
                      (= G6 G2)
                      (= H6 H2)
                      (= I6 I2)
                      (= J6 J2)
                      (= K6 K2)
                      (= L6 L2)
                      (= M6 M2)
                      (= N6 N2)
                      (= O6 O2)
                      (= P6 P2)
                      (= Q6 Q2)
                      (= R6 R2)
                      (= S6 S2)
                      (= T6 T2)
                      (= U6 U2)
                      (= V6 V2)
                      (= W6 W2)
                      (= X6 X2)
                      (= Y6 Y2)
                      (= Z6 Z2)
                      (= A7 A3)
                      (= B7 B3)
                      (= P7 P3)
                      (= Q7 Q3)
                      (= R7 R3)
                      (= S7 S3)
                      (= T7 T3)
                      (= U3 3.0)
                      (= C7 C3)
                      (= D7 D3)
                      (= E7 E3)
                      (= F7 F3)
                      (= G7 G3)
                      (= H7 H3)
                      (= I7 I3)
                      (= J7 J3)
                      (= K7 K3)
                      (= L7 L3)
                      (= M7 M3)
                      (= N7 N3)
                      (= O7 O3)))))
  (and (= X3 V3) a!145 (= Y3 W3)))))))))))))))))))
      )
      (invariant Z3
           A4
           B4
           C4
           D4
           E4
           F4
           G4
           H4
           I4
           J4
           K4
           L4
           M4
           N4
           O4
           P4
           Q4
           R4
           S4
           T4
           U4
           V4
           W4
           X4
           Y4
           Z4
           A5
           B5
           C5
           D5
           E5
           F5
           G5
           H5
           I5
           J5
           K5
           L5
           M5
           O5
           P5
           Q5
           R5
           S5
           T5
           U5
           V5
           W5
           X5
           Y5
           Z5
           A6
           B6
           C6
           D6
           E6
           F6
           G6
           H6
           I6
           J6
           K6
           L6
           M6
           N6
           O6
           P6
           Q6
           R6
           S6
           T6
           U6
           V6
           W6
           X6
           Y6
           Z6
           A7
           B7
           C7
           D7
           E7
           F7
           G7
           H7
           I7
           J7
           K7
           L7
           M7
           N7
           O7
           P7
           Q7
           R7
           S7
           T7
           N5
           X3
           Y3)
    )
  )
)
(assert
  (forall ( (A Real) (B Real) (C Real) (D Real) (E Real) (F Real) (G Real) (H Real) (I Real) (J Real) (K Real) (L Real) (M Real) (N Real) (O Real) (P Real) (Q Real) (R Real) (S Real) (T Real) (U Real) (V Real) (W Real) (X Real) (Y Real) (Z Real) (A1 Real) (B1 Real) (C1 Real) (D1 Real) (E1 Real) (F1 Real) (G1 Real) (H1 Real) (I1 Real) (J1 Real) (K1 Real) (L1 Real) (M1 Real) (N1 Real) (O1 Real) (P1 Real) (Q1 Real) (R1 Real) (S1 Real) (T1 Real) (U1 Real) (V1 Real) (W1 Real) (X1 Real) (Y1 Real) (Z1 Real) (A2 Real) (B2 Real) (C2 Real) (D2 Real) (E2 Real) (F2 Real) (G2 Real) (H2 Real) (I2 Real) (J2 Real) (K2 Real) (L2 Real) (M2 Real) (N2 Real) (O2 Real) (P2 Real) (Q2 Real) (R2 Real) (S2 Real) (T2 Real) (U2 Real) (V2 Real) (W2 Real) (X2 Real) (Y2 Real) (Z2 Real) (A3 Real) (B3 Real) (C3 Bool) (D3 Bool) (E3 Bool) (F3 Bool) (G3 Bool) (H3 Bool) (I3 Bool) (J3 Bool) (K3 Bool) (L3 Bool) (M3 Bool) (N3 Bool) (O3 Bool) (P3 Real) (Q3 Real) (R3 Real) (S3 Real) (T3 Real) (U3 Real) (V3 Real) (W3 Real) ) 
    (=>
      (and
        (invariant A
           B
           C
           D
           E
           F
           G
           H
           I
           J
           K
           L
           M
           N
           O
           P
           Q
           R
           S
           T
           U
           V
           W
           X
           Y
           Z
           A1
           B1
           C1
           D1
           E1
           F1
           G1
           H1
           I1
           J1
           K1
           L1
           M1
           N1
           O1
           P1
           Q1
           R1
           S1
           T1
           U1
           V1
           W1
           X1
           Y1
           Z1
           A2
           B2
           C2
           D2
           E2
           F2
           G2
           H2
           I2
           J2
           K2
           L2
           M2
           N2
           O2
           P2
           Q2
           R2
           S2
           T2
           U2
           V2
           W2
           X2
           Y2
           Z2
           A3
           B3
           C3
           D3
           E3
           F3
           G3
           H3
           I3
           J3
           K3
           L3
           M3
           N3
           O3
           P3
           Q3
           R3
           S3
           T3
           U3
           V3
           W3)
        (let ((a!1 (or (and F3 (not (= S3 W3)))
               (and G3 (not (= T3 W3)))
               (and C3 (not (= P3 W3)))
               (and D3 (not (= Q3 W3)))
               (and E3 (not (= R3 W3)))))
      (a!2 (ite (= V3 4.0) F3 (ite (= V3 3.0) E3 (ite (= V3 2.0) D3 C3)))))
  (and (<= 3.0 U3) a!1 (ite (= V3 5.0) G3 a!2)))
      )
      false
    )
  )
)

(check-sat)
(exit)
